(set-logic QF_LIA)
(declare-fun x0 () Int)
(declare-fun x1 () Int)
(declare-fun x2 () Int)
(declare-fun x3 () Int)
(declare-fun x4 () Int)
(declare-fun x5 () Int)
(declare-fun x6 () Int)
(declare-fun x7 () Int)
(declare-fun x8 () Int)
(declare-fun x9 () Int)
(declare-fun A0 () Bool)
(declare-fun A1 () Bool)
(declare-fun A2 () Bool)
(declare-fun A3 () Bool)
(declare-fun A4 () Bool)
(declare-fun A5 () Bool)
(declare-fun A6 () Bool)
(declare-fun A7 () Bool)
(declare-fun A8 () Bool)
(assert (let ((.def_0 (* 1 x5))) (let ((.def_1 (< .def_0 (- 1)))) (let ((.def_2 (not .def_1))) (let ((.def_3 (* (- 1) x0))) (let ((.def_4 (< .def_3 1))) (let ((.def_5 (not .def_4))) (let ((.def_6 (or .def_5 .def_2))) (let ((.def_7 (not .def_6))) (let ((.def_8 (or A3 A6))) (let ((.def_9 (not .def_8))) (let ((.def_10 (or .def_9 .def_7))) (let ((.def_11 (not .def_10))) (let ((.def_12 (* 1 x4))) (let ((.def_13 (< .def_12 (- 1)))) (let ((.def_14 (* 1 x9))) (let ((.def_15 (< .def_14 (- 1)))) (let ((.def_16 (and .def_15 .def_13))) (let ((.def_17 (not .def_16))) (let ((.def_18 (* 1 x7))) (let ((.def_19 (+ .def_3 .def_18))) (let ((.def_20 (< .def_19 (- 1)))) (let ((.def_21 (* (- 1) x9))) (let ((.def_22 (+ .def_21 .def_0))) (let ((.def_23 (< .def_22 (- 1)))) (let ((.def_24 (or .def_23 .def_20))) (let ((.def_25 (or .def_24 .def_17))) (let ((.def_26 (not .def_25))) (let ((.def_27 (or .def_26 .def_11))) (let ((.def_28 (not .def_27))) (let ((.def_29 (not A1))) (let ((.def_30 (or .def_29 A7))) (let ((.def_31 (not .def_30))) (let ((.def_32 (or .def_29 .def_29))) (let ((.def_33 (not .def_32))) (let ((.def_34 (and .def_33 .def_31))) (let ((.def_35 (not .def_34))) (let ((.def_36 (not A0))) (let ((.def_37 (not A6))) (let ((.def_38 (or .def_37 .def_36))) (let ((.def_39 (< .def_18 (- 1)))) (let ((.def_40 (not .def_39))) (let ((.def_41 (or .def_40 A5))) (let ((.def_42 (not .def_41))) (let ((.def_43 (and .def_42 .def_38))) (let ((.def_44 (or .def_43 .def_35))) (let ((.def_45 (not .def_44))) (let ((.def_46 (or .def_45 .def_28))) (let ((.def_47 (not .def_46))) (let ((.def_48 (* (- 1) x1))) (let ((.def_49 (+ .def_48 .def_18))) (let ((.def_50 (< .def_49 (- 1)))) (let ((.def_51 (* (- 1) x7))) (let ((.def_52 (* (- 1) x3))) (let ((.def_53 (+ .def_52 .def_51))) (let ((.def_54 (< .def_53 (- 1)))) (let ((.def_55 (and .def_54 .def_50))) (let ((.def_56 (< .def_14 1))) (let ((.def_57 (not .def_56))) (let ((.def_58 (* 1 x6))) (let ((.def_59 (+ .def_0 .def_58))) (let ((.def_60 (< .def_59 (- 1)))) (let ((.def_61 (not .def_60))) (let ((.def_62 (or .def_61 .def_57))) (let ((.def_63 (not .def_62))) (let ((.def_64 (= .def_63 .def_55))) (let ((.def_65 (not .def_64))) (let ((.def_66 (* 1 x3))) (let ((.def_67 (+ .def_51 .def_66))) (let ((.def_68 (< .def_67 1))) (let ((.def_69 (not .def_15))) (let ((.def_70 (or .def_69 .def_68))) (let ((.def_71 (not .def_70))) (let ((.def_72 (* (- 1) x6))) (let ((.def_73 (+ .def_72 .def_21))) (let ((.def_74 (< .def_73 (- 1)))) (let ((.def_75 (not .def_74))) (let ((.def_76 (or A6 .def_75))) (let ((.def_77 (not .def_76))) (let ((.def_78 (and .def_77 .def_71))) (let ((.def_79 (not .def_78))) (let ((.def_80 (or .def_79 .def_65))) (let ((.def_81 (not A2))) (let ((.def_82 (or .def_81 A1))) (let ((.def_83 (< .def_21 (- 1)))) (let ((.def_84 (= A4 .def_83))) (let ((.def_85 (not .def_84))) (let ((.def_86 (or .def_85 .def_82))) (let ((.def_87 (not .def_86))) (let ((.def_88 (not A3))) (let ((.def_89 (or .def_88 .def_81))) (let ((.def_90 (not .def_89))) (let ((.def_91 (* 1 x2))) (let ((.def_92 (* 1 x8))) (let ((.def_93 (+ .def_92 .def_91))) (let ((.def_94 (< .def_93 (- 1)))) (let ((.def_95 (* 1 x1))) (let ((.def_96 (+ .def_95 .def_18))) (let ((.def_97 (< .def_96 1))) (let ((.def_98 (or .def_97 .def_94))) (let ((.def_99 (or .def_98 .def_90))) (let ((.def_100 (not .def_99))) (let ((.def_101 (and .def_100 .def_87))) (let ((.def_102 (= .def_101 .def_80))) (let ((.def_103 (not .def_102))) (let ((.def_104 (and .def_103 .def_47))) (let ((.def_105 (and .def_88 A8))) (let ((.def_106 (< .def_3 (- 1)))) (let ((.def_107 (< .def_58 (- 1)))) (let ((.def_108 (and .def_107 .def_106))) (let ((.def_109 (= .def_108 .def_105))) (let ((.def_110 (not .def_109))) (let ((.def_111 (* (- 1) x2))) (let ((.def_112 (+ .def_111 .def_14))) (let ((.def_113 (< .def_112 (- 1)))) (let ((.def_114 (not .def_113))) (let ((.def_115 (+ .def_12 .def_51))) (let ((.def_116 (< .def_115 1))) (let ((.def_117 (or .def_116 .def_114))) (let ((.def_118 (not .def_117))) (let ((.def_119 (* 1 x0))) (let ((.def_120 (+ .def_21 .def_119))) (let ((.def_121 (< .def_120 (- 1)))) (let ((.def_122 (not .def_121))) (let ((.def_123 (and .def_37 .def_122))) (let ((.def_124 (not .def_123))) (let ((.def_125 (or .def_124 .def_118))) (let ((.def_126 (not .def_125))) (let ((.def_127 (and .def_126 .def_110))) (let ((.def_128 (< .def_12 1))) (let ((.def_129 (or A3 .def_128))) (let ((.def_130 (+ .def_3 .def_0))) (let ((.def_131 (< .def_130 (- 1)))) (let ((.def_132 (not .def_131))) (let ((.def_133 (and .def_132 A2))) (let ((.def_134 (not .def_133))) (let ((.def_135 (or .def_134 .def_129))) (let ((.def_136 (and A7 .def_81))) (let ((.def_137 (not .def_136))) (let ((.def_138 (< .def_119 1))) (let ((.def_139 (not .def_138))) (let ((.def_140 (or .def_37 .def_139))) (let ((.def_141 (not .def_140))) (let ((.def_142 (= .def_141 .def_137))) (let ((.def_143 (not .def_142))) (let ((.def_144 (or .def_143 .def_135))) (let ((.def_145 (not .def_144))) (let ((.def_146 (or .def_145 .def_127))) (let ((.def_147 (* (- 1) x4))) (let ((.def_148 (+ .def_147 .def_14))) (let ((.def_149 (< .def_148 (- 1)))) (let ((.def_150 (+ .def_111 .def_52))) (let ((.def_151 (< .def_150 1))) (let ((.def_152 (not .def_151))) (let ((.def_153 (and .def_152 .def_149))) (let ((.def_154 (not .def_153))) (let ((.def_155 (+ .def_66 .def_92))) (let ((.def_156 (< .def_155 (- 1)))) (let ((.def_157 (or .def_156 .def_106))) (let ((.def_158 (not .def_157))) (let ((.def_159 (or .def_158 .def_154))) (let ((.def_160 (not .def_159))) (let ((.def_161 (or .def_36 .def_5))) (let ((.def_162 (+ .def_18 .def_14))) (let ((.def_163 (< .def_162 (- 1)))) (let ((.def_164 (not .def_163))) (let ((.def_165 (and .def_164 A6))) (let ((.def_166 (or .def_165 .def_161))) (let ((.def_167 (and .def_166 .def_160))) (let ((.def_168 (not .def_167))) (let ((.def_169 (not A5))) (let ((.def_170 (not A8))) (let ((.def_171 (= .def_170 .def_169))) (let ((.def_172 (not A4))) (let ((.def_173 (and .def_172 .def_170))) (let ((.def_174 (and .def_173 .def_171))) (let ((.def_175 (not .def_174))) (let ((.def_176 (+ .def_18 .def_92))) (let ((.def_177 (< .def_176 (- 1)))) (let ((.def_178 (or .def_88 .def_177))) (let ((.def_179 (not .def_178))) (let ((.def_180 (* (- 1) x8))) (let ((.def_181 (+ .def_91 .def_180))) (let ((.def_182 (< .def_181 1))) (let ((.def_183 (not .def_182))) (let ((.def_184 (and .def_183 .def_172))) (let ((.def_185 (or .def_184 .def_179))) (let ((.def_186 (not .def_185))) (let ((.def_187 (and .def_186 .def_175))) (let ((.def_188 (= .def_187 .def_168))) (let ((.def_189 (not .def_188))) (let ((.def_190 (and .def_189 .def_146))) (let ((.def_191 (not .def_190))) (let ((.def_192 (= .def_191 .def_104))) (let ((.def_193 (not .def_192))) (let ((.def_194 (<= x9 1))) (let ((.def_195 (<= 0 x9))) (let ((.def_196 (<= x8 1))) (let ((.def_197 (<= 0 x8))) (let ((.def_198 (<= x7 1))) (let ((.def_199 (<= 0 x7))) (let ((.def_200 (<= x6 1))) (let ((.def_201 (<= 0 x6))) (let ((.def_202 (<= x5 1))) (let ((.def_203 (<= 0 x5))) (let ((.def_204 (<= x4 1))) (let ((.def_205 (<= 0 x4))) (let ((.def_206 (<= x3 1))) (let ((.def_207 (<= 0 x3))) (let ((.def_208 (<= x2 1))) (let ((.def_209 (<= 0 x2))) (let ((.def_210 (<= x1 1))) (let ((.def_211 (<= 0 x1))) (let ((.def_212 (<= x0 1))) (let ((.def_213 (<= 0 x0))) (let ((.def_214 (and .def_213 .def_212 .def_211 .def_210 .def_209 .def_208 .def_207 .def_206 .def_205 .def_204 .def_203 .def_202 .def_201 .def_200 .def_199 .def_198 .def_197 .def_196 .def_195 .def_194 .def_193))) .def_214))))))))))))))))))))))))))))))))))))))))))))))))))))))))))))))))))))))))))))))))))))))))))))))))))))))))))))))))))))))))))))))))))))))))))))))))))))))))))))))))))))))))))))))))))))))))))))))))))))))))))))))))))))))))
(check-sat)
